p wcnf 9 23 119
119 1 2 0
119 1 4 0
119 1 5 0
119 1 6 0
119 1 8 0
119 1 9 0
119 2 3 0
119 2 6 0
119 2 7 0
119 3 6 0
119 3 7 0
119 5 6 0
119 7 8 0
119 7 9 0
4 -1 0
6 -2 0
7 -3 0
9 -4 0
8 -5 0
6 -6 0
6 -7 0
8 -8 0
8 -9 0
